unsat
(define-fun skel ((n90 Bool) (n121 Bool) (n152 Bool) (i24 Bool)) Bool (and n90 (and n121 (and n152 i24))))
0.05user 0.00system 0:00.05elapsed 98%CPU (0avgtext+0avgdata 26540maxresident)k
8inputs+8outputs (0major+1403minor)pagefaults 0swaps
